c array.sh: path:     /data/cnf/sc2022/main/Wallace_Bits_Fast_2.cnf.cnf.xz
c array.sh: name:     Wallace_Bits_Fast_2.cnf
c array.sh: task:     57
c array.sh: host:     c3n04
c array.sh: uname:    Linux c3n04 5.4.0-166-generic #183-Ubuntu SMP Mon Oct 2 11:28:33 UTC 2023 x86_64 x86_64 x86_64 GNU/Linux
c array.sh: start:    Fri 24 Nov 2023 02:37:39 PM CET
c array.sh: noturbo:  1
c array.sh: governor: 32 performance
c array.sh: tmp:      1%
c array.sh: unzipped: /tmp/local-unzipped-24715725-57-Wallace_Bits_Fast_2.cnf.cnf
c --- [ banner ] -------------------------------------------------------------
c 
c CaDiCaL SAT Solver
c Copyright (c) 2016-2023 A. Biere, M. Fleury, N. Froleyks, K. Fazekas, F. Pollitt
c 
c Version 1.9.0+vivify+0j 3637700f13e5f86519137ce8e91672ec524e8d4d
c g++ (Ubuntu 9.4.0-1ubuntu1~20.04.2) 9.4.0 -Wall -Wextra -O3 -DNDEBUG
c Fri 24 Nov 2023 02:37:08 PM CET Linux cluster3 5.4.0-166-generic x86_64
c 
c --- [ parsing input ] ------------------------------------------------------
c 
c reading DIMACS file from '/tmp/local-unzipped-24715725-57-Wallace_Bits_Fast_2.cnf.cnf'
c opening file to read '/tmp/local-unzipped-24715725-57-Wallace_Bits_Fast_2.cnf.cnf'
c found 'p cnf 5892 23367' header
c parsed 23367 clauses in 0.01 seconds process time
c 
c --- [ options ] ------------------------------------------------------------
c 
c   --profile=4                    (different from default '2')
c 
c --- [ solving ] ------------------------------------------------------------
c 
c time measured in process time since initialization
c 
c  seconds  reductions  redundant  irredundant
c         MB    restarts       trail     variables
c          level   conflicts       glue       remaining
c 
c *  0.01  7  0 0   0    0    0  0% 0 23300 5825 99%
c {  0.02  8  0 0   0    0    0  0% 0 23300 5825 99%
c i  0.02  8 42 0   0    3    1  3% 0 23299 5824 99%
c i  0.02  8 44 0   0    6    2  3% 0 23298 5823 99%
c i  0.02  8 45 0   0    9    3  3% 0 23297 5822 99%
c i  0.02  8 46 0   0   12    4  3% 0 23296 5821 99%
c i  0.02  8 47 0   0   15    5  3% 0 23295 5820 99%
c i  0.02  8 48 0   0   18    6  3% 0 23294 5819 99%
c i  0.02  8 49 0   0   21    7  3% 0 23293 5818 99%
c i  0.02  8 50 0   0   24    8  3% 0 23292 5817 99%
c i  0.02  8 52 0   0   27    9  3% 0 23291 5816 99%
c i  0.02  8 53 0   0   30   10  3% 0 23290 5815 99%
c i  0.02  8 54 0   0   33   11  3% 0 23289 5814 99%
c i  0.02  8 55 0   0   36   12  3% 0 23288 5813 99%
c i  0.02  8 56 0   0   39   13  3% 0 23287 5812 99%
c i  0.02  8 53 0   0   44   14  3% 1 23285 5810 99%
c -  0.04  8 47 1  39  303  139  4% 1 23012 5810 99%
c u  0.04  8 47 1  39  303  135  4% 1 23012 5802 98%
c v  0.04  8 47 1  39  303  131  4% 1 23012 5794 98%
c t  0.05  8 47 1  39  303  129  4% 1 22999 5660 96%
c 
c  seconds  reductions  redundant  irredundant
c         MB    restarts       trail     variables
c          level   conflicts       glue       remaining
c 
c i  0.06  8 50 1  49  437  200  5% 1 22963 5659 96%
c i  0.06  8 94 1  59  782  365  9% 2 22849 5658 96%
c -  0.07  9 115 2  59  907  319 10% 2 22307 5658 96%
c }  0.07  9 132 2  59 1003  363 11% 2 22275 5658 96%
c [  0.07  9  0 2  59 1003  363  0% 0 22275 5658 96%
c O  0.07  9 22 2  59 1005  363 42% 0 22274 5658 96%
c i  0.08  9 16 2  59 1013  366 45% 10 22272 5652 96%
c i  0.08  9 18 2  59 1021  369 48% 12 22270 5646 96%
c i  0.09  9 27 2  59 1107  392 32% 27 22239 5640 96%
c i  0.09  9 26 2  59 1108  392 33% 26 22239 5634 96%
c i  0.09  9 26 2  59 1109  392 33% 26 22239 5628 96%
c i  0.10  9 24 2  59 1125  399 36% 23 22235 5622 95%
c i  0.10  9 24 2  59 1137  408 37% 21 22235 5610 95%
c i  0.11  9 23 2  59 1144  414 37% 20 22235 5604 95%
c i  0.11  9 23 2  59 1145  414 38% 19 22235 5598 95%
c i  0.11  9 22 2  59 1166  427 40% 18 22232 5592 95%
c i  0.11  9 22 2  59 1167  427 41% 18 22232 5586 95%
c i  0.12  9 22 2  59 1168  427 41% 17 22232 5582 95%
c i  0.13  9 22 2  59 1216  469 41% 17 22232 5570 95%
c i  0.13  9 22 2  59 1225  474 41% 17 22232 5560 94%
c 
c  seconds  reductions  redundant   irredundant
c         MB    restarts       trail      variables
c          level   conflicts       glue        remaining
c 
c i  0.14  9 23 2  59 1276  510 40% 16 22232 5554 94%
c i  0.14  9 23 2  59 1277  510 41% 16 22232 5548 94%
c i  0.14  9 23 2  59 1278  510 41% 16 22232 5542 94%
c i  0.15  9 23 2  59 1279  510 41% 16 22232 5538 94%
c i  0.15  9 22 2  59 1280  510 41% 16 22232 5532 94%
c i  0.15  9 22 2  59 1281  510 41% 16 22232 5526 94%
c i  0.15  9 22 2  59 1282  510 41% 16 22232 5520 94%
c i  0.15  9 22 2  59 1283  510 41% 15 22232 5516 94%
c i  0.17  9 24 2  59 1397  579 40% 16 22229 5512 94%
c -  0.28  9 25 3  59 1807  841 43% 18 21702 5512 94%
c i  0.38  9 24 3  60 2210 1115 44% 17 21698 5506 93%
c i  0.38  9 24 3  60 2211 1115 44% 17 21698 5500 93%
c i  0.39  9 24 3  60 2212 1115 44% 17 21698 5494 93%
c i  0.39  9 24 3  60 2213 1115 44% 17 21698 5490 93%
c i  0.39  9 24 3  60 2215 1116 44% 17 21698 5484 93%
c i  0.39  9 24 3  60 2216 1116 44% 17 21698 5478 93%
c i  0.39  9 24 3  60 2217 1116 44% 17 21698 5472 93%
c i  0.39  9 24 3  60 2218 1116 44% 17 21698 5468 93%
c i  0.40  9 24 3  60 2220 1117 44% 17 21698 5462 93%
c i  0.40  9 24 3  60 2221 1117 44% 17 21698 5456 93%
c 
c  seconds  reductions  redundant   irredundant
c         MB    restarts       trail      variables
c          level   conflicts       glue        remaining
c 
c i  0.40  9 24 3  60 2222 1117 44% 17 21698 5450 92%
c i  0.40  9 24 3  60 2223 1117 44% 17 21698 5446 92%
c ]  0.69  9 22 3  60 3003 1672 48% 15 21686 5446 92%
c {  0.69  9 132 3  60 3003 1672 11% 2 21686 5446 92%
c i  0.69  9 132 3  60 3004 1672 11% 2 21686 5440 92%
c F  0.69  9 132 3  60 3005 1673 11% 2 21686 5440 92%
c -  0.69  9 132 4  60 3007 1272 11% 2 21430 5440 92%
c i  0.69  9 131 4  60 3049 1279 12% 2 21415 5434 92%
c i  0.70  9 133 4  60 3146 1317 13% 2 21387 5432 92%
c i  0.70  9 133 4  60 3147 1317 13% 2 21387 5430 92%
c i  0.70  9 133 4  60 3148 1317 13% 2 21387 5428 92%
c i  0.70  9 133 4  60 3154 1320 13% 2 21386 5426 92%
c i  0.70  9 134 4  60 3155 1320 13% 2 21386 5424 92%
c i  0.70  9 134 4  60 3156 1320 13% 2 21386 5422 92%
c i  0.70  9 134 4  60 3162 1323 13% 2 21385 5420 92%
c i  0.70  9 134 4  60 3163 1323 13% 2 21385 5418 92%
c i  0.70  9 134 4  60 3164 1323 13% 2 21385 5416 92%
c i  0.70  9 134 4  60 3169 1324 13% 2 21383 5414 92%
c i  0.70  9 140 4  60 3261 1366 14% 2 21360 5412 92%
c i  0.70  9 141 4  60 3269 1370 14% 2 21358 5410 92%
c 
c  seconds   reductions  redundant  irredundant
c         MB     restarts       trail     variables
c           level   conflicts       glue       remaining
c 
c i  0.70  9 142 4  60 3282 1376 14% 2 21354 5408 92%
c s  0.73 10 254 4  60 4004 1687 24% 1 21054 5408 92%
c t  0.73 10 254 4  60 4004 1505 24% 1 21027 5365 91%
c e  0.79 10 254 4  60 4004   83 24% 1 14805 2576 44%
c s  0.80 10 254 4  60 4004   82 24% 1 13797 2576 44%
c e  0.82 10 254 4  60 4004   73 24% 1 13660 2433 41%
c -  0.98 10 190 5 198 4507  255 72% 3 13660 2433 41%
c u  0.99 10 190 5 198 4507  255 72% 3 13660 2433 41%
c v  0.99 10 190 5 198 4507  247 72% 3 13660 2433 41%
c w  1.00 10 190 5 198 4507  248 72% 3 13602 2433 41%
c x  1.01 10 190 5 198 4507  235 72% 3 13602 2433 41%
c t  1.01 10 190 5 198 4507  234 72% 3 13602 2433 41%
c d  1.14 10 154 5 324 5000  624 79% 6 13600 2432 41%
c 3  1.15 10 154 5 324 5000 2969 79% 6 13599 2432 41%
c 2  1.16 10 154 5 324 5000 3307 79% 6 13599 2431 41%
c p  1.20 10 154 5 324 5000 13615 79% 6 13599 2424 41%
c d  1.21 10 154 5 324 5000 13585 79% 6 13531 2423 41%
c d  1.21 10 154 5 324 5000 13583 79% 6 13529 2422 41%
c #  1.40 10 114 5 506 6007 14413 78% 8 13529 2422 41%
c -  1.43 10 107 6 508 6307 3464 75% 8 13529 2422 41%
c 
c  seconds  reductions  redundant  irredundant
c         MB    restarts       trail     variables
c          level   conflicts       glue       remaining
c 
c }  1.51 10 94 6 578 7003 4103 72% 8 13529 2422 41%
c [  1.51 10 22 6 578 7003 4103 116% 15 13529 2422 41%
c -  1.92 11 20 7 579 8408 4119 103% 15 13529 2422 41%
c I  2.37 11 20 7 580 10008 5167 97% 16 13529 2422 41%
c -  2.57 11 19 8 581 10808 3833 95% 15 13529 2422 41%
c ]  2.57 11 19 8 581 10817 3838 95% 15 13529 2422 41%
c 1  2.57 11 19 8 581 10817 3838 95% 15 13529 2422 41%
c 
c --- [ result ] -------------------------------------------------------------
c 
s SATISFIABLE
c 
c --- [ run-time profiling ] -------------------------------------------------
c 
c process time taken by individual solving procedures
c (percentage relative to process time for solving)
c 
c         2.34   91.64% search
c         1.68   65.54% stable
c         1.22   47.61% analyze
c         0.95   36.95% propagate
c         0.67   26.00% unstable
c         0.35   13.74% shrink
c         0.30   11.63% bump
c         0.21    8.35% simplify
c         0.13    5.18% minimize
c         0.08    3.06% elim
c         0.08    3.01% decide
c         0.05    1.85% probe
c         0.04    1.74% vivify
c         0.03    1.17% collect
c         0.03    1.14% reduce
c         0.02    0.76% subsume
c         0.02    0.65% connect
c         0.01    0.51% parse
c         0.01    0.50% backward
c         0.01    0.42% ternary
c         0.01    0.31% decompose
c         0.01    0.31% compact
c         0.01    0.24% copy
c         0.00    0.19% transred
c         0.00    0.14% restart
c         0.00    0.10% lucky
c         0.00    0.01% deduplicate
c   =================================
c         2.56   99.49% solve
c 
c last line shows process time for solving
c (percentage relative to total process time)
c 
c --- [ statistics ] ---------------------------------------------------------
c 
c chronological:              1424        13.16 %  of conflicts
c conflicts:                 10817      4228.50    per second
c decisions:                 21721      8491.01    per second
c eliminated:                 2458        41.72 %  of all variables
c fixed:                      1009        17.12 %  of all variables
c learned:                    9730        89.95 %  per conflict
c learned_lits:            1110940       100.00 %  learned literals
c minimized:                     0         0.00 %  learned literals
c shrunken:                 500954        45.09 %  learned literals
c minishrunken:             273137        24.59 %  learned literals
c otfs:                       1901        17.57 %  of conflict
c propagations:            6828478         2.67 M  per second
c reduced:                    2729        25.23 %  per conflict
c rephased:                      4      2704.25    interval
c restarts:                    581        18.62    interval
c stabilizing:                   2        53.06 %  of conflicts
c substituted:                   3         0.05 %  of all variables
c subsumed:                   6734         4.95 %  of all clauses
c strengthened:               8982         6.60 %  of all clauses
c ternary:                    2692         1.89 %  of resolved
c trail reuses:                  0         0.00 %  of incremental calls
c vivified:                    166         0.12 %  of all clauses
c weakened:                   8251         2.70    average size
c 
c seconds are measured in process time for solving
c 
c --- [ resources ] ----------------------------------------------------------
c 
c total process time since initialization:         2.57    seconds
c total real time since initialization:            2.57    seconds
c maximum resident set size of process:           11.40    MB
c 
c --- [ shutting down ] ------------------------------------------------------
c 
c exit 10
c array.sh: end:      Fri 24 Nov 2023 02:37:42 PM CET
